p tw 40 98
0 1
0 4
0 5
0 20
0 29
1 16
1 26
1 21
2 3
2 19
2 35
2 7
2 28
3 9
3 28
3 16
4 5
4 22
4 14
4 13
4 36
5 9
5 28
6 7
6 9
6 28
6 8
6 11
6 10
6 23
6 30
7 32
8 9
8 29
8 35
8 20
8 17
8 26
8 38
9 10
9 14
9 20
10 11
10 27
10 36
10 26
10 30
10 34
11 31
11 33
11 35
11 24
11 20
12 13
12 26
12 37
12 33
12 31
12 34
13 34
14 15
14 31
14 21
14 28
15 16
15 18
15 26
16 22
17 18
17 20
18 30
18 27
20 21
20 36
20 28
21 24
21 31
22 23
22 35
22 28
23 24
23 30
24 25
24 39
25 37
25 30
26 32
26 34
27 37
27 34
28 33
28 38
28 37
29 30
29 32
29 36
31 38
32 33
